problem_generation/data/GISP/train/er_n=60_m=1076_p=0.60_SET2_setparam=100.00_alpha=0.50_399.lp
maximize
OBJ:100x0 + 100x1 + 100x2 + 100x3 + 100x4 + 100x5 + 100x6 + 100x7 + 100x8 + 100x9 + 100x10 + 100x11 + 100x12 + 100x13 + 100x14 + 100x15 + 100x16 + 100x17 + 100x18 + 100x19 + 100x20 + 100x21 + 100x22 + 100x23 + 100x24 + 100x25 + 100x26 + 100x27 + 100x28 + 100x29 + 100x30 + 100x31 + 100x32 + 100x33 + 100x34 + 100x35 + 100x36 + 100x37 + 100x38 + 100x39 + 100x40 + 100x41 + 100x42 + 100x43 + 100x44 + 100x45 + 100x46 + 100x47 + 100x48 + 100x49 + 100x50 + 100x51 + 100x52 + 100x53 + 100x54 + 100x55 + 100x56 + 100x57 + 100x58 + 100x59 - y15_21 - y55_57 - y7_26 - y18_26 - y17_58 - y28_58 - y0_5 - y40_41 - y6_48 - y29_50 - y0_23 - y6_57 - y41_42 - y41_51 - y33_47 - y3_6 - y33_56 - y2_50 - y25_52 - y3_24 - y14_24 - y22_46 - y14_51 - y7_12 - y15_25 - y17_44 - y18_21 - y17_53 - y9_58 - y48_49 - y0_9 - y6_43 - y29_45 - y6_52 - y21_50 - y33_42 - y3_10 - y10_58 - y22_32 - y16_56 - y47_52 - y17_48 - y9_44 - y6_29 - y40_58 - y2_13 - y10_26 - y25_33 - y3_5 - y43_50 - y24_46 - y3_23 - y32_59 - y1_53 - y13_55 - y36_38 - y28_34 - y5_41 - y28_43 - y9_39 - y9_57 - y29_35 - y39_48 - y31_53 - y12_58 - y32_36 - y24_41 - y13_50 - y16_55 - y5_36 - y5_45 - y17_47 - y9_43 - y6_37 - y6_46 - y39_43 - y2_3 - y39_52 - y20_48 - y2_12 - y10_25 - y2_21 - y20_57 - y2_30 - y13_27 - y24_27 - y35_36 - y43_49 - y24_45 - y32_58 - y43_58 - y1_52 - y13_54 - y9_11 - y36_37 - y5_40 - y5_49 - y42_53 - y11_56 - y31_34 - y10_11 - y2_7 - y20_43 - y31_52 - y12_48 - y12_57 - y16_18 - y13_31 - y1_38 - y13_40 - y16_36 - y16_45 - y16_54 - y17_37 - y5_44 - y6_9 - y50_52 - y8_46 - y27_59 - y19_55 - y31_47 - y20_56 - y31_56 - y4_48 - y1_24 - y32_39 - y24_35 - y35_44 - y1_51 - y46_50 - y38_46 - y5_21 - y17_23 - y15_53 - y49_55 - y7_58 - y6_13 - y8_41 - y30_41 - y42_43 - y30_50 - y0_46 - y11_46 - y0_55 - y31_42 - y4_25 - y31_51 - y12_47 - y1_10 - y12_56 - y1_19 - y45_53 - y16_35 - y5_7 - y15_48 - y26_48 - y38_50 - y15_57 - y38_59 - y27_31 - y8_27 - y19_27 - y30_36 - y19_54 - y30_54 - y42_56 - y11_50 - y12_15 - y4_11 - y20_37 - y4_20 - y4_29 - y12_42 - y34_48 - y24_25 - y16_21 - y45_57 - y1_32 - y56_57 - y15_43 - y7_39 - y38_54 - y18_48 - y8_13 - y0_18 - y19_31 - y30_31 - y0_36 - y8_49 - y20_23 - y12_19 - y41_55 - y4_15 - y33_51 - y23_28 - y12_37 - y23_37 - y1_9 - y45_52 - y3_46 - y37_48 - y22_59 - y3_55 - y37_57 - y18_25 - y7_34 - y26_47 - y7_52 - y0_13 - y19_26 - y0_22 - y29_58 - y8_35 - y30_35 - y8_44 - y11_40 - y11_49 - y41_50 - y4_10 - y12_23 - y10_53 - y4_28 - y34_38 - y1_13 - y34_47 - y3_41 - y37_43 - y34_56 - y45_56 - y14_59 - y15_24 - y18_29 - y7_38 - y26_51 - y18_47 - y40_53 - y4_5 - y41_54 - y10_48 - y10_57 - y22_31 - y34_42 - y14_36 - y22_49 - y45_51 - y37_47 - y14_54 - y7_15 - y15_28 - y26_28 - y26_37 - y48_52 - y11_12 - y40_48 - y11_30 - y4_9 - y44_54 - y25_50 - y22_26 - y25_59 - y3_22 - y22_35 - y34_37 - y3_31 - y3_40 - y14_40 - y22_53 - y55_59 - y8_11 - y29_43 - y11_16 - y21_48 - y10_29 - y25_27 - y10_38 - y33_40 - y2_34 - y10_47 - y33_49 - y32_53 - y22_30 - y13_58 - y3_35 - y14_35 - y3_44 - y14_44 - y36_50 - y21_34 - y29_47 - y2_20 - y25_31 - y10_42 - y43_48 - y32_57 - y13_53 - y3_30 - y16_58 - y28_32 - y28_41 - y36_54 - y47_54 - y28_50 - y17_59 - y6_49 - y2_6 - y25_26 - y32_43 - y51_56 - y24_39 - y3_25 - y24_57 - y35_57 - y16_53 - y9_23 - y36_58 - y47_58 - y5_52 - y9_50 - y21_24 - y6_35 - y21_33 - y31_46 - y39_59 - y20_55 - y31_55 - y2_28 - y13_25 - y2_37 - y13_43 - y24_43 - y16_39 - y35_52 - y16_48 - y17_22 - y9_18 - y5_29 - y28_31 - y17_40 - y28_49 - y6_12 - y5_56 - y58_59 - y9_54 - y21_28 - y39_45 - y2_5 - y20_50 - y4_42 - y32_42 - y16_25 - y1_36 - y43_51 - y16_34 - y13_47 - y24_47 - y1_54 - y13_56 - y5_15 - y9_13 - y36_39 - y5_33 - y17_35 - y28_35 - y27_57 - y30_53 - y42_55 - y20_27 - y0_58 - y12_32 - y23_32 - y12_41 - y23_41 - y20_54 - y4_37 - y4_55 - y1_31 - y16_38 - y17_21 - y46_57 - y9_17 - y38_53 - y49_53 - y6_11 - y27_43 - y30_39 - y50_54 - y30_48 - y8_57 - y39_44 - y12_27 - y31_49 - y12_45 - y23_45 - y20_58 - y4_50 - y1_26 - y24_28 - y1_35 - y35_37 - y16_42 - y46_52 - y38_48 - y9_21 - y5_32 - y27_29 - y8_25 - y8_34 - y30_34 - y27_47 - y27_56 - y42_54 - y0_48 - y11_48 - y12_13 - y20_26 - y0_57 - y11_57 - y23_31 - y31_44 - y12_40 - y13_14 - y45_46 - y1_21 - y53_59 - y1_30 - y37_51 - y16_28 - y3_58 - y14_58 - y15_41 - y38_52 - y49_52 - y7_46 - y18_55 - y27_33 - y8_38 - y42_49 - y19_56 - y30_56 - y41_53 - y4_13 - y31_39 - y4_22 - y12_35 - y23_35 - y4_31 - y4_40 - y22_48 - y34_50 - y45_50 - y22_57 - y34_59 - y45_59 - y37_55 - y26_27 - y15_36 - y15_45 - y26_45 - y18_41 - y49_56 - y7_50 - y27_28 - y7_59 - y8_24 - y18_59 - y19_24 - y0_29 - y11_29 - y19_51 - y41_48 - y20_25 - y4_8 - y12_21 - y41_57 - y4_17 - y33_53 - y4_26 - y25_58 - y34_45 - y14_39 - y37_59 - y7_27 - y37_49 - y18_36 - y15_49 - y26_49 - y8_10 - y11_15 - y8_28 - y19_28 - y19_37 - y0_42 - y10_46 - y33_48 - y4_21 - y2_51 - y1_6 - y22_38 - y34_40 - y3_43 - y14_43 - y15_26 - y18_22 - y26_35 - y7_40 - y0_1 - y48_50 - y0_10 - y19_23 - y30_32 - y11_28 - y25_30 - y25_39 - y4_16 - y10_50 - y44_52 - y22_42 - y37_40 - y3_47 - y3_56
 Subject to
C1: x0+x1-y0_1 <=1 
C2: x0+x3 <=1 
C3: x0+x4 <=1 
C4: x0+x5-y0_5 <=1 
C5: x0+x6 <=1 
C6: x0+x7 <=1 
C7: x0+x8 <=1 
C8: x0+x9-y0_9 <=1 
C9: x0+x10-y0_10 <=1 
C10: x0+x12 <=1 
C11: x0+x13-y0_13 <=1 
C12: x0+x18-y0_18 <=1 
C13: x0+x19 <=1 
C14: x0+x20 <=1 
C15: x0+x22-y0_22 <=1 
C16: x0+x23-y0_23 <=1 
C17: x0+x26 <=1 
C18: x0+x28 <=1 
C19: x0+x29-y0_29 <=1 
C20: x0+x31 <=1 
C21: x0+x32 <=1 
C22: x0+x36-y0_36 <=1 
C23: x0+x38 <=1 
C24: x0+x42-y0_42 <=1 
C25: x0+x46-y0_46 <=1 
C26: x0+x47 <=1 
C27: x0+x48-y0_48 <=1 
C28: x0+x49 <=1 
C29: x0+x50 <=1 
C30: x0+x54 <=1 
C31: x0+x55-y0_55 <=1 
C32: x0+x56 <=1 
C33: x0+x57-y0_57 <=1 
C34: x0+x58-y0_58 <=1 
C35: x0+x59 <=1 
C36: x1+x4 <=1 
C37: x1+x6-y1_6 <=1 
C38: x1+x7 <=1 
C39: x1+x8 <=1 
C40: x1+x9-y1_9 <=1 
C41: x1+x10-y1_10 <=1 
C42: x1+x12 <=1 
C43: x1+x13-y1_13 <=1 
C44: x1+x17 <=1 
C45: x1+x19-y1_19 <=1 
C46: x1+x20 <=1 
C47: x1+x21-y1_21 <=1 
C48: x1+x23 <=1 
C49: x1+x24-y1_24 <=1 
C50: x1+x25 <=1 
C51: x1+x26-y1_26 <=1 
C52: x1+x27 <=1 
C53: x1+x30-y1_30 <=1 
C54: x1+x31-y1_31 <=1 
C55: x1+x32-y1_32 <=1 
C56: x1+x35-y1_35 <=1 
C57: x1+x36-y1_36 <=1 
C58: x1+x38-y1_38 <=1 
C59: x1+x40 <=1 
C60: x1+x41 <=1 
C61: x1+x44 <=1 
C62: x1+x48 <=1 
C63: x1+x49 <=1 
C64: x1+x51-y1_51 <=1 
C65: x1+x52-y1_52 <=1 
C66: x1+x53-y1_53 <=1 
C67: x1+x54-y1_54 <=1 
C68: x1+x58 <=1 
C69: x1+x59 <=1 
C70: x2+x3-y2_3 <=1 
C71: x2+x5-y2_5 <=1 
C72: x2+x6-y2_6 <=1 
C73: x2+x7-y2_7 <=1 
C74: x2+x8 <=1 
C75: x2+x9 <=1 
C76: x2+x10 <=1 
C77: x2+x11 <=1 
C78: x2+x12-y2_12 <=1 
C79: x2+x13-y2_13 <=1 
C80: x2+x14 <=1 
C81: x2+x17 <=1 
C82: x2+x20-y2_20 <=1 
C83: x2+x21-y2_21 <=1 
C84: x2+x22 <=1 
C85: x2+x26 <=1 
C86: x2+x28-y2_28 <=1 
C87: x2+x30-y2_30 <=1 
C88: x2+x32 <=1 
C89: x2+x34-y2_34 <=1 
C90: x2+x35 <=1 
C91: x2+x36 <=1 
C92: x2+x37-y2_37 <=1 
C93: x2+x38 <=1 
C94: x2+x40 <=1 
C95: x2+x41 <=1 
C96: x2+x43 <=1 
C97: x2+x44 <=1 
C98: x2+x45 <=1 
C99: x2+x50-y2_50 <=1 
C100: x2+x51-y2_51 <=1 
C101: x2+x53 <=1 
C102: x2+x54 <=1 
C103: x2+x55 <=1 
C104: x2+x57 <=1 
C105: x2+x58 <=1 
C106: x2+x59 <=1 
C107: x3+x5-y3_5 <=1 
C108: x3+x6-y3_6 <=1 
C109: x3+x7 <=1 
C110: x3+x8 <=1 
C111: x3+x9 <=1 
C112: x3+x10-y3_10 <=1 
C113: x3+x12 <=1 
C114: x3+x15 <=1 
C115: x3+x16 <=1 
C116: x3+x17 <=1 
C117: x3+x19 <=1 
C118: x3+x20 <=1 
C119: x3+x22-y3_22 <=1 
C120: x3+x23-y3_23 <=1 
C121: x3+x24-y3_24 <=1 
C122: x3+x25-y3_25 <=1 
C123: x3+x28 <=1 
C124: x3+x29 <=1 
C125: x3+x30-y3_30 <=1 
C126: x3+x31-y3_31 <=1 
C127: x3+x34 <=1 
C128: x3+x35-y3_35 <=1 
C129: x3+x36 <=1 
C130: x3+x37 <=1 
C131: x3+x40-y3_40 <=1 
C132: x3+x41-y3_41 <=1 
C133: x3+x43-y3_43 <=1 
C134: x3+x44-y3_44 <=1 
C135: x3+x45 <=1 
C136: x3+x46-y3_46 <=1 
C137: x3+x47-y3_47 <=1 
C138: x3+x49 <=1 
C139: x3+x50 <=1 
C140: x3+x51 <=1 
C141: x3+x53 <=1 
C142: x3+x55-y3_55 <=1 
C143: x3+x56-y3_56 <=1 
C144: x3+x57 <=1 
C145: x3+x58-y3_58 <=1 
C146: x4+x5-y4_5 <=1 
C147: x4+x6 <=1 
C148: x4+x7 <=1 
C149: x4+x8-y4_8 <=1 
C150: x4+x9-y4_9 <=1 
C151: x4+x10-y4_10 <=1 
C152: x4+x11-y4_11 <=1 
C153: x4+x13-y4_13 <=1 
C154: x4+x14 <=1 
C155: x4+x15-y4_15 <=1 
C156: x4+x16-y4_16 <=1 
C157: x4+x17-y4_17 <=1 
C158: x4+x18 <=1 
C159: x4+x19 <=1 
C160: x4+x20-y4_20 <=1 
C161: x4+x21-y4_21 <=1 
C162: x4+x22-y4_22 <=1 
C163: x4+x23 <=1 
C164: x4+x25-y4_25 <=1 
C165: x4+x26-y4_26 <=1 
C166: x4+x27 <=1 
C167: x4+x28-y4_28 <=1 
C168: x4+x29-y4_29 <=1 
C169: x4+x31-y4_31 <=1 
C170: x4+x32 <=1 
C171: x4+x34 <=1 
C172: x4+x37-y4_37 <=1 
C173: x4+x40-y4_40 <=1 
C174: x4+x42-y4_42 <=1 
C175: x4+x43 <=1 
C176: x4+x44 <=1 
C177: x4+x47 <=1 
C178: x4+x48-y4_48 <=1 
C179: x4+x50-y4_50 <=1 
C180: x4+x51 <=1 
C181: x4+x52 <=1 
C182: x4+x54 <=1 
C183: x4+x55-y4_55 <=1 
C184: x4+x57 <=1 
C185: x4+x58 <=1 
C186: x4+x59 <=1 
C187: x5+x6 <=1 
C188: x5+x7-y5_7 <=1 
C189: x5+x11 <=1 
C190: x5+x13 <=1 
C191: x5+x14 <=1 
C192: x5+x15-y5_15 <=1 
C193: x5+x16 <=1 
C194: x5+x18 <=1 
C195: x5+x19 <=1 
C196: x5+x20 <=1 
C197: x5+x21-y5_21 <=1 
C198: x5+x23 <=1 
C199: x5+x24 <=1 
C200: x5+x27 <=1 
C201: x5+x29-y5_29 <=1 
C202: x5+x32-y5_32 <=1 
C203: x5+x33-y5_33 <=1 
C204: x5+x34 <=1 
C205: x5+x36-y5_36 <=1 
C206: x5+x37 <=1 
C207: x5+x40-y5_40 <=1 
C208: x5+x41-y5_41 <=1 
C209: x5+x42 <=1 
C210: x5+x43 <=1 
C211: x5+x44-y5_44 <=1 
C212: x5+x45-y5_45 <=1 
C213: x5+x46 <=1 
C214: x5+x49-y5_49 <=1 
C215: x5+x50 <=1 
C216: x5+x52-y5_52 <=1 
C217: x5+x54 <=1 
C218: x5+x56-y5_56 <=1 
C219: x5+x57 <=1 
C220: x5+x58 <=1 
C221: x6+x8 <=1 
C222: x6+x9-y6_9 <=1 
C223: x6+x10 <=1 
C224: x6+x11-y6_11 <=1 
C225: x6+x12-y6_12 <=1 
C226: x6+x13-y6_13 <=1 
C227: x6+x14 <=1 
C228: x6+x15 <=1 
C229: x6+x18 <=1 
C230: x6+x19 <=1 
C231: x6+x20 <=1 
C232: x6+x23 <=1 
C233: x6+x25 <=1 
C234: x6+x29-y6_29 <=1 
C235: x6+x30 <=1 
C236: x6+x31 <=1 
C237: x6+x34 <=1 
C238: x6+x35-y6_35 <=1 
C239: x6+x36 <=1 
C240: x6+x37-y6_37 <=1 
C241: x6+x39 <=1 
C242: x6+x41 <=1 
C243: x6+x43-y6_43 <=1 
C244: x6+x45 <=1 
C245: x6+x46-y6_46 <=1 
C246: x6+x48-y6_48 <=1 
C247: x6+x49-y6_49 <=1 
C248: x6+x52-y6_52 <=1 
C249: x6+x54 <=1 
C250: x6+x55 <=1 
C251: x6+x56 <=1 
C252: x6+x57-y6_57 <=1 
C253: x6+x58 <=1 
C254: x7+x8 <=1 
C255: x7+x10 <=1 
C256: x7+x12-y7_12 <=1 
C257: x7+x13 <=1 
C258: x7+x14 <=1 
C259: x7+x15-y7_15 <=1 
C260: x7+x19 <=1 
C261: x7+x22 <=1 
C262: x7+x24 <=1 
C263: x7+x26-y7_26 <=1 
C264: x7+x27-y7_27 <=1 
C265: x7+x32 <=1 
C266: x7+x33 <=1 
C267: x7+x34-y7_34 <=1 
C268: x7+x35 <=1 
C269: x7+x36 <=1 
C270: x7+x37 <=1 
C271: x7+x38-y7_38 <=1 
C272: x7+x39-y7_39 <=1 
C273: x7+x40-y7_40 <=1 
C274: x7+x43 <=1 
C275: x7+x46-y7_46 <=1 
C276: x7+x47 <=1 
C277: x7+x50-y7_50 <=1 
C278: x7+x52-y7_52 <=1 
C279: x7+x53 <=1 
C280: x7+x57 <=1 
C281: x7+x58-y7_58 <=1 
C282: x7+x59-y7_59 <=1 
C283: x8+x10-y8_10 <=1 
C284: x8+x11-y8_11 <=1 
C285: x8+x13-y8_13 <=1 
C286: x8+x15 <=1 
C287: x8+x17 <=1 
C288: x8+x18 <=1 
C289: x8+x20 <=1 
C290: x8+x22 <=1 
C291: x8+x23 <=1 
C292: x8+x24-y8_24 <=1 
C293: x8+x25-y8_25 <=1 
C294: x8+x27-y8_27 <=1 
C295: x8+x28-y8_28 <=1 
C296: x8+x32 <=1 
C297: x8+x34-y8_34 <=1 
C298: x8+x35-y8_35 <=1 
C299: x8+x37 <=1 
C300: x8+x38-y8_38 <=1 
C301: x8+x40 <=1 
C302: x8+x41-y8_41 <=1 
C303: x8+x44-y8_44 <=1 
C304: x8+x46-y8_46 <=1 
C305: x8+x47 <=1 
C306: x8+x48 <=1 
C307: x8+x49-y8_49 <=1 
C308: x8+x50 <=1 
C309: x8+x51 <=1 
C310: x8+x52 <=1 
C311: x8+x56 <=1 
C312: x8+x57-y8_57 <=1 
C313: x8+x58 <=1 
C314: x9+x11-y9_11 <=1 
C315: x9+x12 <=1 
C316: x9+x13-y9_13 <=1 
C317: x9+x16 <=1 
C318: x9+x17-y9_17 <=1 
C319: x9+x18-y9_18 <=1 
C320: x9+x20 <=1 
C321: x9+x21-y9_21 <=1 
C322: x9+x22 <=1 
C323: x9+x23-y9_23 <=1 
C324: x9+x29 <=1 
C325: x9+x30 <=1 
C326: x9+x38 <=1 
C327: x9+x39-y9_39 <=1 
C328: x9+x43-y9_43 <=1 
C329: x9+x44-y9_44 <=1 
C330: x9+x49 <=1 
C331: x9+x50-y9_50 <=1 
C332: x9+x52 <=1 
C333: x9+x54-y9_54 <=1 
C334: x9+x57-y9_57 <=1 
C335: x9+x58-y9_58 <=1 
C336: x10+x11-y10_11 <=1 
C337: x10+x12 <=1 
C338: x10+x14 <=1 
C339: x10+x18 <=1 
C340: x10+x25-y10_25 <=1 
C341: x10+x26-y10_26 <=1 
C342: x10+x27 <=1 
C343: x10+x29-y10_29 <=1 
C344: x10+x30 <=1 
C345: x10+x31 <=1 
C346: x10+x32 <=1 
C347: x10+x33 <=1 
C348: x10+x34 <=1 
C349: x10+x35 <=1 
C350: x10+x36 <=1 
C351: x10+x38-y10_38 <=1 
C352: x10+x39 <=1 
C353: x10+x40 <=1 
C354: x10+x42-y10_42 <=1 
C355: x10+x43 <=1 
C356: x10+x44 <=1 
C357: x10+x46-y10_46 <=1 
C358: x10+x47-y10_47 <=1 
C359: x10+x48-y10_48 <=1 
C360: x10+x50-y10_50 <=1 
C361: x10+x53-y10_53 <=1 
C362: x10+x54 <=1 
C363: x10+x55 <=1 
C364: x10+x57-y10_57 <=1 
C365: x10+x58-y10_58 <=1 
C366: x11+x12-y11_12 <=1 
C367: x11+x13 <=1 
C368: x11+x14 <=1 
C369: x11+x15-y11_15 <=1 
C370: x11+x16-y11_16 <=1 
C371: x11+x17 <=1 
C372: x11+x21 <=1 
C373: x11+x22 <=1 
C374: x11+x23 <=1 
C375: x11+x24 <=1 
C376: x11+x25 <=1 
C377: x11+x27 <=1 
C378: x11+x28-y11_28 <=1 
C379: x11+x29-y11_29 <=1 
C380: x11+x30-y11_30 <=1 
C381: x11+x33 <=1 
C382: x11+x35 <=1 
C383: x11+x38 <=1 
C384: x11+x39 <=1 
C385: x11+x40-y11_40 <=1 
C386: x11+x44 <=1 
C387: x11+x46-y11_46 <=1 
C388: x11+x48-y11_48 <=1 
C389: x11+x49-y11_49 <=1 
C390: x11+x50-y11_50 <=1 
C391: x11+x51 <=1 
C392: x11+x52 <=1 
C393: x11+x55 <=1 
C394: x11+x56-y11_56 <=1 
C395: x11+x57-y11_57 <=1 
C396: x11+x58 <=1 
C397: x12+x13-y12_13 <=1 
C398: x12+x14 <=1 
C399: x12+x15-y12_15 <=1 
C400: x12+x16 <=1 
C401: x12+x18 <=1 
C402: x12+x19-y12_19 <=1 
C403: x12+x20 <=1 
C404: x12+x21-y12_21 <=1 
C405: x12+x22 <=1 
C406: x12+x23-y12_23 <=1 
C407: x12+x27-y12_27 <=1 
C408: x12+x28 <=1 
C409: x12+x32-y12_32 <=1 
C410: x12+x34 <=1 
C411: x12+x35-y12_35 <=1 
C412: x12+x36 <=1 
C413: x12+x37-y12_37 <=1 
C414: x12+x39 <=1 
C415: x12+x40-y12_40 <=1 
C416: x12+x41-y12_41 <=1 
C417: x12+x42-y12_42 <=1 
C418: x12+x43 <=1 
C419: x12+x45-y12_45 <=1 
C420: x12+x46 <=1 
C421: x12+x47-y12_47 <=1 
C422: x12+x48-y12_48 <=1 
C423: x12+x50 <=1 
C424: x12+x55 <=1 
C425: x12+x56-y12_56 <=1 
C426: x12+x57-y12_57 <=1 
C427: x12+x58-y12_58 <=1 
C428: x13+x14-y13_14 <=1 
C429: x13+x20 <=1 
C430: x13+x24 <=1 
C431: x13+x25-y13_25 <=1 
C432: x13+x27-y13_27 <=1 
C433: x13+x28 <=1 
C434: x13+x30 <=1 
C435: x13+x31-y13_31 <=1 
C436: x13+x32 <=1 
C437: x13+x33 <=1 
C438: x13+x36 <=1 
C439: x13+x38 <=1 
C440: x13+x39 <=1 
C441: x13+x40-y13_40 <=1 
C442: x13+x42 <=1 
C443: x13+x43-y13_43 <=1 
C444: x13+x44 <=1 
C445: x13+x47-y13_47 <=1 
C446: x13+x50-y13_50 <=1 
C447: x13+x53-y13_53 <=1 
C448: x13+x54-y13_54 <=1 
C449: x13+x55-y13_55 <=1 
C450: x13+x56-y13_56 <=1 
C451: x13+x58-y13_58 <=1 
C452: x13+x59 <=1 
C453: x14+x17 <=1 
C454: x14+x20 <=1 
C455: x14+x21 <=1 
C456: x14+x22 <=1 
C457: x14+x24-y14_24 <=1 
C458: x14+x28 <=1 
C459: x14+x30 <=1 
C460: x14+x32 <=1 
C461: x14+x35-y14_35 <=1 
C462: x14+x36-y14_36 <=1 
C463: x14+x37 <=1 
C464: x14+x39-y14_39 <=1 
C465: x14+x40-y14_40 <=1 
C466: x14+x42 <=1 
C467: x14+x43-y14_43 <=1 
C468: x14+x44-y14_44 <=1 
C469: x14+x45 <=1 
C470: x14+x46 <=1 
C471: x14+x48 <=1 
C472: x14+x49 <=1 
C473: x14+x50 <=1 
C474: x14+x51-y14_51 <=1 
C475: x14+x52 <=1 
C476: x14+x54-y14_54 <=1 
C477: x14+x58-y14_58 <=1 
C478: x14+x59-y14_59 <=1 
C479: x15+x18 <=1 
C480: x15+x21-y15_21 <=1 
C481: x15+x24-y15_24 <=1 
C482: x15+x25-y15_25 <=1 
C483: x15+x26-y15_26 <=1 
C484: x15+x28-y15_28 <=1 
C485: x15+x29 <=1 
C486: x15+x31 <=1 
C487: x15+x32 <=1 
C488: x15+x33 <=1 
C489: x15+x35 <=1 
C490: x15+x36-y15_36 <=1 
C491: x15+x37 <=1 
C492: x15+x41-y15_41 <=1 
C493: x15+x42 <=1 
C494: x15+x43-y15_43 <=1 
C495: x15+x45-y15_45 <=1 
C496: x15+x46 <=1 
C497: x15+x48-y15_48 <=1 
C498: x15+x49-y15_49 <=1 
C499: x15+x51 <=1 
C500: x15+x52 <=1 
C501: x15+x53-y15_53 <=1 
C502: x15+x54 <=1 
C503: x15+x55 <=1 
C504: x15+x56 <=1 
C505: x15+x57-y15_57 <=1 
C506: x16+x18-y16_18 <=1 
C507: x16+x21-y16_21 <=1 
C508: x16+x25-y16_25 <=1 
C509: x16+x26 <=1 
C510: x16+x28-y16_28 <=1 
C511: x16+x31 <=1 
C512: x16+x34-y16_34 <=1 
C513: x16+x35-y16_35 <=1 
C514: x16+x36-y16_36 <=1 
C515: x16+x38-y16_38 <=1 
C516: x16+x39-y16_39 <=1 
C517: x16+x40 <=1 
C518: x16+x41 <=1 
C519: x16+x42-y16_42 <=1 
C520: x16+x44 <=1 
C521: x16+x45-y16_45 <=1 
C522: x16+x48-y16_48 <=1 
C523: x16+x49 <=1 
C524: x16+x50 <=1 
C525: x16+x52 <=1 
C526: x16+x53-y16_53 <=1 
C527: x16+x54-y16_54 <=1 
C528: x16+x55-y16_55 <=1 
C529: x16+x56-y16_56 <=1 
C530: x16+x58-y16_58 <=1 
C531: x17+x20 <=1 
C532: x17+x21-y17_21 <=1 
C533: x17+x22-y17_22 <=1 
C534: x17+x23-y17_23 <=1 
C535: x17+x24 <=1 
C536: x17+x26 <=1 
C537: x17+x27 <=1 
C538: x17+x28 <=1 
C539: x17+x29 <=1 
C540: x17+x30 <=1 
C541: x17+x32 <=1 
C542: x17+x34 <=1 
C543: x17+x35-y17_35 <=1 
C544: x17+x36 <=1 
C545: x17+x37-y17_37 <=1 
C546: x17+x38 <=1 
C547: x17+x39 <=1 
C548: x17+x40-y17_40 <=1 
C549: x17+x42 <=1 
C550: x17+x44-y17_44 <=1 
C551: x17+x45 <=1 
C552: x17+x46 <=1 
C553: x17+x47-y17_47 <=1 
C554: x17+x48-y17_48 <=1 
C555: x17+x49 <=1 
C556: x17+x51 <=1 
C557: x17+x53-y17_53 <=1 
C558: x17+x55 <=1 
C559: x17+x58-y17_58 <=1 
C560: x17+x59-y17_59 <=1 
C561: x18+x21-y18_21 <=1 
C562: x18+x22-y18_22 <=1 
C563: x18+x25-y18_25 <=1 
C564: x18+x26-y18_26 <=1 
C565: x18+x29-y18_29 <=1 
C566: x18+x30 <=1 
C567: x18+x31 <=1 
C568: x18+x32 <=1 
C569: x18+x34 <=1 
C570: x18+x35 <=1 
C571: x18+x36-y18_36 <=1 
C572: x18+x41-y18_41 <=1 
C573: x18+x42 <=1 
C574: x18+x43 <=1 
C575: x18+x44 <=1 
C576: x18+x45 <=1 
C577: x18+x47-y18_47 <=1 
C578: x18+x48-y18_48 <=1 
C579: x18+x53 <=1 
C580: x18+x55-y18_55 <=1 
C581: x18+x57 <=1 
C582: x18+x59-y18_59 <=1 
C583: x19+x20 <=1 
C584: x19+x22 <=1 
C585: x19+x23-y19_23 <=1 
C586: x19+x24-y19_24 <=1 
C587: x19+x26-y19_26 <=1 
C588: x19+x27-y19_27 <=1 
C589: x19+x28-y19_28 <=1 
C590: x19+x30 <=1 
C591: x19+x31-y19_31 <=1 
C592: x19+x34 <=1 
C593: x19+x35 <=1 
C594: x19+x37-y19_37 <=1 
C595: x19+x39 <=1 
C596: x19+x43 <=1 
C597: x19+x48 <=1 
C598: x19+x49 <=1 
C599: x19+x51-y19_51 <=1 
C600: x19+x54-y19_54 <=1 
C601: x19+x55-y19_55 <=1 
C602: x19+x56-y19_56 <=1 
C603: x20+x21 <=1 
C604: x20+x22 <=1 
C605: x20+x23-y20_23 <=1 
C606: x20+x25-y20_25 <=1 
C607: x20+x26-y20_26 <=1 
C608: x20+x27-y20_27 <=1 
C609: x20+x35 <=1 
C610: x20+x36 <=1 
C611: x20+x37-y20_37 <=1 
C612: x20+x40 <=1 
C613: x20+x41 <=1 
C614: x20+x43-y20_43 <=1 
C615: x20+x46 <=1 
C616: x20+x48-y20_48 <=1 
C617: x20+x50-y20_50 <=1 
C618: x20+x51 <=1 
C619: x20+x54-y20_54 <=1 
C620: x20+x55-y20_55 <=1 
C621: x20+x56-y20_56 <=1 
C622: x20+x57-y20_57 <=1 
C623: x20+x58-y20_58 <=1 
C624: x20+x59 <=1 
C625: x21+x22 <=1 
C626: x21+x24-y21_24 <=1 
C627: x21+x28-y21_28 <=1 
C628: x21+x30 <=1 
C629: x21+x32 <=1 
C630: x21+x33-y21_33 <=1 
C631: x21+x34-y21_34 <=1 
C632: x21+x35 <=1 
C633: x21+x36 <=1 
C634: x21+x38 <=1 
C635: x21+x39 <=1 
C636: x21+x43 <=1 
C637: x21+x44 <=1 
C638: x21+x45 <=1 
C639: x21+x46 <=1 
C640: x21+x48-y21_48 <=1 
C641: x21+x49 <=1 
C642: x21+x50-y21_50 <=1 
C643: x21+x56 <=1 
C644: x21+x59 <=1 
C645: x22+x26-y22_26 <=1 
C646: x22+x27 <=1 
C647: x22+x28 <=1 
C648: x22+x30-y22_30 <=1 
C649: x22+x31-y22_31 <=1 
C650: x22+x32-y22_32 <=1 
C651: x22+x33 <=1 
C652: x22+x35-y22_35 <=1 
C653: x22+x36 <=1 
C654: x22+x37 <=1 
C655: x22+x38-y22_38 <=1 
C656: x22+x39 <=1 
C657: x22+x40 <=1 
C658: x22+x42-y22_42 <=1 
C659: x22+x45 <=1 
C660: x22+x46-y22_46 <=1 
C661: x22+x48-y22_48 <=1 
C662: x22+x49-y22_49 <=1 
C663: x22+x50 <=1 
C664: x22+x52 <=1 
C665: x22+x53-y22_53 <=1 
C666: x22+x54 <=1 
C667: x22+x56 <=1 
C668: x22+x57-y22_57 <=1 
C669: x22+x59-y22_59 <=1 
C670: x23+x25 <=1 
C671: x23+x26 <=1 
C672: x23+x27 <=1 
C673: x23+x28-y23_28 <=1 
C674: x23+x29 <=1 
C675: x23+x31-y23_31 <=1 
C676: x23+x32-y23_32 <=1 
C677: x23+x34 <=1 
C678: x23+x35-y23_35 <=1 
C679: x23+x37-y23_37 <=1 
C680: x23+x38 <=1 
C681: x23+x39 <=1 
C682: x23+x40 <=1 
C683: x23+x41-y23_41 <=1 
C684: x23+x43 <=1 
C685: x23+x45-y23_45 <=1 
C686: x23+x46 <=1 
C687: x23+x48 <=1 
C688: x23+x49 <=1 
C689: x23+x52 <=1 
C690: x23+x54 <=1 
C691: x23+x55 <=1 
C692: x23+x56 <=1 
C693: x24+x25-y24_25 <=1 
C694: x24+x27-y24_27 <=1 
C695: x24+x28-y24_28 <=1 
C696: x24+x29 <=1 
C697: x24+x31 <=1 
C698: x24+x32 <=1 
C699: x24+x33 <=1 
C700: x24+x34 <=1 
C701: x24+x35-y24_35 <=1 
C702: x24+x39-y24_39 <=1 
C703: x24+x41-y24_41 <=1 
C704: x24+x43-y24_43 <=1 
C705: x24+x44 <=1 
C706: x24+x45-y24_45 <=1 
C707: x24+x46-y24_46 <=1 
C708: x24+x47-y24_47 <=1 
C709: x24+x48 <=1 
C710: x24+x50 <=1 
C711: x24+x51 <=1 
C712: x24+x54 <=1 
C713: x24+x57-y24_57 <=1 
C714: x24+x58 <=1 
C715: x25+x26-y25_26 <=1 
C716: x25+x27-y25_27 <=1 
C717: x25+x29 <=1 
C718: x25+x30-y25_30 <=1 
C719: x25+x31-y25_31 <=1 
C720: x25+x33-y25_33 <=1 
C721: x25+x34 <=1 
C722: x25+x36 <=1 
C723: x25+x38 <=1 
C724: x25+x39-y25_39 <=1 
C725: x25+x42 <=1 
C726: x25+x46 <=1 
C727: x25+x47 <=1 
C728: x25+x50-y25_50 <=1 
C729: x25+x52-y25_52 <=1 
C730: x25+x57 <=1 
C731: x25+x58-y25_58 <=1 
C732: x25+x59-y25_59 <=1 
C733: x26+x27-y26_27 <=1 
C734: x26+x28-y26_28 <=1 
C735: x26+x29 <=1 
C736: x26+x31 <=1 
C737: x26+x32 <=1 
C738: x26+x33 <=1 
C739: x26+x35-y26_35 <=1 
C740: x26+x37-y26_37 <=1 
C741: x26+x38 <=1 
C742: x26+x39 <=1 
C743: x26+x41 <=1 
C744: x26+x42 <=1 
C745: x26+x44 <=1 
C746: x26+x45-y26_45 <=1 
C747: x26+x47-y26_47 <=1 
C748: x26+x48-y26_48 <=1 
C749: x26+x49-y26_49 <=1 
C750: x26+x51-y26_51 <=1 
C751: x26+x53 <=1 
C752: x26+x54 <=1 
C753: x26+x56 <=1 
C754: x26+x58 <=1 
C755: x26+x59 <=1 
C756: x27+x28-y27_28 <=1 
C757: x27+x29-y27_29 <=1 
C758: x27+x30 <=1 
C759: x27+x31-y27_31 <=1 
C760: x27+x32 <=1 
C761: x27+x33-y27_33 <=1 
C762: x27+x34 <=1 
C763: x27+x38 <=1 
C764: x27+x43-y27_43 <=1 
C765: x27+x46 <=1 
C766: x27+x47-y27_47 <=1 
C767: x27+x49 <=1 
C768: x27+x50 <=1 
C769: x27+x53 <=1 
C770: x27+x56-y27_56 <=1 
C771: x27+x57-y27_57 <=1 
C772: x27+x58 <=1 
C773: x27+x59-y27_59 <=1 
C774: x28+x29 <=1 
C775: x28+x30 <=1 
C776: x28+x31-y28_31 <=1 
C777: x28+x32-y28_32 <=1 
C778: x28+x34-y28_34 <=1 
C779: x28+x35-y28_35 <=1 
C780: x28+x36 <=1 
C781: x28+x41-y28_41 <=1 
C782: x28+x42 <=1 
C783: x28+x43-y28_43 <=1 
C784: x28+x44 <=1 
C785: x28+x46 <=1 
C786: x28+x49-y28_49 <=1 
C787: x28+x50-y28_50 <=1 
C788: x28+x51 <=1 
C789: x28+x54 <=1 
C790: x28+x55 <=1 
C791: x28+x56 <=1 
C792: x28+x58-y28_58 <=1 
C793: x28+x59 <=1 
C794: x29+x30 <=1 
C795: x29+x35-y29_35 <=1 
C796: x29+x42 <=1 
C797: x29+x43-y29_43 <=1 
C798: x29+x45-y29_45 <=1 
C799: x29+x47-y29_47 <=1 
C800: x29+x48 <=1 
C801: x29+x49 <=1 
C802: x29+x50-y29_50 <=1 
C803: x29+x52 <=1 
C804: x29+x53 <=1 
C805: x29+x55 <=1 
C806: x29+x56 <=1 
C807: x29+x58-y29_58 <=1 
C808: x30+x31-y30_31 <=1 
C809: x30+x32-y30_32 <=1 
C810: x30+x33 <=1 
C811: x30+x34-y30_34 <=1 
C812: x30+x35-y30_35 <=1 
C813: x30+x36-y30_36 <=1 
C814: x30+x39-y30_39 <=1 
C815: x30+x40 <=1 
C816: x30+x41-y30_41 <=1 
C817: x30+x43 <=1 
C818: x30+x48-y30_48 <=1 
C819: x30+x49 <=1 
C820: x30+x50-y30_50 <=1 
C821: x30+x51 <=1 
C822: x30+x53-y30_53 <=1 
C823: x30+x54-y30_54 <=1 
C824: x30+x56-y30_56 <=1 
C825: x30+x59 <=1 
C826: x31+x33 <=1 
C827: x31+x34-y31_34 <=1 
C828: x31+x36 <=1 
C829: x31+x37 <=1 
C830: x31+x39-y31_39 <=1 
C831: x31+x41 <=1 
C832: x31+x42-y31_42 <=1 
C833: x31+x44-y31_44 <=1 
C834: x31+x46-y31_46 <=1 
C835: x31+x47-y31_47 <=1 
C836: x31+x48 <=1 
C837: x31+x49-y31_49 <=1 
C838: x31+x51-y31_51 <=1 
C839: x31+x52-y31_52 <=1 
C840: x31+x53-y31_53 <=1 
C841: x31+x55-y31_55 <=1 
C842: x31+x56-y31_56 <=1 
C843: x31+x57 <=1 
C844: x31+x58 <=1 
C845: x31+x59 <=1 
C846: x32+x36-y32_36 <=1 
C847: x32+x37 <=1 
C848: x32+x39-y32_39 <=1 
C849: x32+x40 <=1 
C850: x32+x41 <=1 
C851: x32+x42-y32_42 <=1 
C852: x32+x43-y32_43 <=1 
C853: x32+x44 <=1 
C854: x32+x45 <=1 
C855: x32+x46 <=1 
C856: x32+x47 <=1 
C857: x32+x49 <=1 
C858: x32+x50 <=1 
C859: x32+x53-y32_53 <=1 
C860: x32+x54 <=1 
C861: x32+x55 <=1 
C862: x32+x57-y32_57 <=1 
C863: x32+x58-y32_58 <=1 
C864: x32+x59-y32_59 <=1 
C865: x33+x34 <=1 
C866: x33+x36 <=1 
C867: x33+x40-y33_40 <=1 
C868: x33+x42-y33_42 <=1 
C869: x33+x44 <=1 
C870: x33+x47-y33_47 <=1 
C871: x33+x48-y33_48 <=1 
C872: x33+x49-y33_49 <=1 
C873: x33+x50 <=1 
C874: x33+x51-y33_51 <=1 
C875: x33+x53-y33_53 <=1 
C876: x33+x54 <=1 
C877: x33+x56-y33_56 <=1 
C878: x33+x57 <=1 
C879: x33+x59 <=1 
C880: x34+x36 <=1 
C881: x34+x37-y34_37 <=1 
C882: x34+x38-y34_38 <=1 
C883: x34+x39 <=1 
C884: x34+x40-y34_40 <=1 
C885: x34+x42-y34_42 <=1 
C886: x34+x45-y34_45 <=1 
C887: x34+x47-y34_47 <=1 
C888: x34+x48-y34_48 <=1 
C889: x34+x50-y34_50 <=1 
C890: x34+x51 <=1 
C891: x34+x54 <=1 
C892: x34+x55 <=1 
C893: x34+x56-y34_56 <=1 
C894: x34+x59-y34_59 <=1 
C895: x35+x36-y35_36 <=1 
C896: x35+x37-y35_37 <=1 
C897: x35+x38 <=1 
C898: x35+x39 <=1 
C899: x35+x44-y35_44 <=1 
C900: x35+x45 <=1 
C901: x35+x47 <=1 
C902: x35+x48 <=1 
C903: x35+x52-y35_52 <=1 
C904: x35+x53 <=1 
C905: x35+x54 <=1 
C906: x35+x57-y35_57 <=1 
C907: x35+x59 <=1 
C908: x36+x37-y36_37 <=1 
C909: x36+x38-y36_38 <=1 
C910: x36+x39-y36_39 <=1 
C911: x36+x41 <=1 
C912: x36+x44 <=1 
C913: x36+x45 <=1 
C914: x36+x46 <=1 
C915: x36+x47 <=1 
C916: x36+x49 <=1 
C917: x36+x50-y36_50 <=1 
C918: x36+x52 <=1 
C919: x36+x54-y36_54 <=1 
C920: x36+x58-y36_58 <=1 
C921: x37+x38 <=1 
C922: x37+x40-y37_40 <=1 
C923: x37+x42 <=1 
C924: x37+x43-y37_43 <=1 
C925: x37+x45 <=1 
C926: x37+x46 <=1 
C927: x37+x47-y37_47 <=1 
C928: x37+x48-y37_48 <=1 
C929: x37+x49-y37_49 <=1 
C930: x37+x51-y37_51 <=1 
C931: x37+x52 <=1 
C932: x37+x53 <=1 
C933: x37+x54 <=1 
C934: x37+x55-y37_55 <=1 
C935: x37+x57-y37_57 <=1 
C936: x37+x58 <=1 
C937: x37+x59-y37_59 <=1 
C938: x38+x39 <=1 
C939: x38+x41 <=1 
C940: x38+x46-y38_46 <=1 
C941: x38+x48-y38_48 <=1 
C942: x38+x50-y38_50 <=1 
C943: x38+x51 <=1 
C944: x38+x52-y38_52 <=1 
C945: x38+x53-y38_53 <=1 
C946: x38+x54-y38_54 <=1 
C947: x38+x56 <=1 
C948: x38+x57 <=1 
C949: x38+x59-y38_59 <=1 
C950: x39+x40 <=1 
C951: x39+x41 <=1 
C952: x39+x42 <=1 
C953: x39+x43-y39_43 <=1 
C954: x39+x44-y39_44 <=1 
C955: x39+x45-y39_45 <=1 
C956: x39+x47 <=1 
C957: x39+x48-y39_48 <=1 
C958: x39+x52-y39_52 <=1 
C959: x39+x53 <=1 
C960: x39+x54 <=1 
C961: x39+x59-y39_59 <=1 
C962: x40+x41-y40_41 <=1 
C963: x40+x42 <=1 
C964: x40+x43 <=1 
C965: x40+x44 <=1 
C966: x40+x47 <=1 
C967: x40+x48-y40_48 <=1 
C968: x40+x49 <=1 
C969: x40+x50 <=1 
C970: x40+x52 <=1 
C971: x40+x53-y40_53 <=1 
C972: x40+x54 <=1 
C973: x40+x56 <=1 
C974: x40+x58-y40_58 <=1 
C975: x40+x59 <=1 
C976: x41+x42-y41_42 <=1 
C977: x41+x47 <=1 
C978: x41+x48-y41_48 <=1 
C979: x41+x50-y41_50 <=1 
C980: x41+x51-y41_51 <=1 
C981: x41+x52 <=1 
C982: x41+x53-y41_53 <=1 
C983: x41+x54-y41_54 <=1 
C984: x41+x55-y41_55 <=1 
C985: x41+x57-y41_57 <=1 
C986: x41+x58 <=1 
C987: x42+x43-y42_43 <=1 
C988: x42+x44 <=1 
C989: x42+x49-y42_49 <=1 
C990: x42+x51 <=1 
C991: x42+x52 <=1 
C992: x42+x53-y42_53 <=1 
C993: x42+x54-y42_54 <=1 
C994: x42+x55-y42_55 <=1 
C995: x42+x56-y42_56 <=1 
C996: x42+x58 <=1 
C997: x43+x47 <=1 
C998: x43+x48-y43_48 <=1 
C999: x43+x49-y43_49 <=1 
C1000: x43+x50-y43_50 <=1 
C1001: x43+x51-y43_51 <=1 
C1002: x43+x52 <=1 
C1003: x43+x53 <=1 
C1004: x43+x55 <=1 
C1005: x43+x58-y43_58 <=1 
C1006: x43+x59 <=1 
C1007: x44+x45 <=1 
C1008: x44+x46 <=1 
C1009: x44+x47 <=1 
C1010: x44+x52-y44_52 <=1 
C1011: x44+x54-y44_54 <=1 
C1012: x44+x55 <=1 
C1013: x44+x57 <=1 
C1014: x44+x59 <=1 
C1015: x45+x46-y45_46 <=1 
C1016: x45+x48 <=1 
C1017: x45+x49 <=1 
C1018: x45+x50-y45_50 <=1 
C1019: x45+x51-y45_51 <=1 
C1020: x45+x52-y45_52 <=1 
C1021: x45+x53-y45_53 <=1 
C1022: x45+x56-y45_56 <=1 
C1023: x45+x57-y45_57 <=1 
C1024: x45+x59-y45_59 <=1 
C1025: x46+x47 <=1 
C1026: x46+x49 <=1 
C1027: x46+x50-y46_50 <=1 
C1028: x46+x52-y46_52 <=1 
C1029: x46+x55 <=1 
C1030: x46+x56 <=1 
C1031: x46+x57-y46_57 <=1 
C1032: x47+x48 <=1 
C1033: x47+x50 <=1 
C1034: x47+x51 <=1 
C1035: x47+x52-y47_52 <=1 
C1036: x47+x54-y47_54 <=1 
C1037: x47+x55 <=1 
C1038: x47+x56 <=1 
C1039: x47+x58-y47_58 <=1 
C1040: x48+x49-y48_49 <=1 
C1041: x48+x50-y48_50 <=1 
C1042: x48+x52-y48_52 <=1 
C1043: x48+x54 <=1 
C1044: x48+x55 <=1 
C1045: x48+x57 <=1 
C1046: x48+x58 <=1 
C1047: x48+x59 <=1 
C1048: x49+x52-y49_52 <=1 
C1049: x49+x53-y49_53 <=1 
C1050: x49+x55-y49_55 <=1 
C1051: x49+x56-y49_56 <=1 
C1052: x50+x51 <=1 
C1053: x50+x52-y50_52 <=1 
C1054: x50+x54-y50_54 <=1 
C1055: x50+x58 <=1 
C1056: x50+x59 <=1 
C1057: x51+x56-y51_56 <=1 
C1058: x51+x58 <=1 
C1059: x52+x55 <=1 
C1060: x52+x57 <=1 
C1061: x52+x58 <=1 
C1062: x52+x59 <=1 
C1063: x53+x54 <=1 
C1064: x53+x56 <=1 
C1065: x53+x57 <=1 
C1066: x53+x58 <=1 
C1067: x53+x59-y53_59 <=1 
C1068: x54+x57 <=1 
C1069: x54+x59 <=1 
C1070: x55+x56 <=1 
C1071: x55+x57-y55_57 <=1 
C1072: x55+x59-y55_59 <=1 
C1073: x56+x57-y56_57 <=1 
C1074: x56+x58 <=1 
C1075: x57+x59 <=1 
C1076: x58+x59-y58_59 <=1 

binary
x0
x1
x2
x3
x4
x5
x6
x7
x8
x9
x10
x11
x12
x13
x14
x15
x16
x17
x18
x19
x20
x21
x22
x23
x24
x25
x26
x27
x28
x29
x30
x31
x32
x33
x34
x35
x36
x37
x38
x39
x40
x41
x42
x43
x44
x45
x46
x47
x48
x49
x50
x51
x52
x53
x54
x55
x56
x57
x58
x59
