problem_generation/data/GISP/train/er_n=60_m=1076_p=0.60_SET2_setparam=100.00_alpha=0.50_399.sol
objective value:                                 1179
x0                                                  1 	(obj:100)
x9                                                  1 	(obj:100)
x18                                                 1 	(obj:100)
x21                                                 1 	(obj:100)
x25                                                 1 	(obj:100)
x27                                                 1 	(obj:100)
x33                                                 1 	(obj:100)
x37                                                 1 	(obj:100)
x40                                                 1 	(obj:100)
x41                                                 1 	(obj:100)
x51                                                 1 	(obj:100)
x55                                                 1 	(obj:100)
y40_41                                              1 	(obj:-1)
y41_51                                              1 	(obj:-1)
y18_21                                              1 	(obj:-1)
y0_9                                                1 	(obj:-1)
y25_33                                              1 	(obj:-1)
y0_55                                               1 	(obj:-1)
y0_18                                               1 	(obj:-1)
y41_55                                              1 	(obj:-1)
y33_51                                              1 	(obj:-1)
y18_25                                              1 	(obj:-1)
y25_27                                              1 	(obj:-1)
y33_40                                              1 	(obj:-1)
y21_33                                              1 	(obj:-1)
y9_18                                               1 	(obj:-1)
y9_21                                               1 	(obj:-1)
y37_51                                              1 	(obj:-1)
y18_55                                              1 	(obj:-1)
y27_33                                              1 	(obj:-1)
y37_55                                              1 	(obj:-1)
y18_41                                              1 	(obj:-1)
y37_40                                              1 	(obj:-1)
